c Created with the Wolfram Language : www.wolfram.com
c 
p edge 100 958
e 1 2
e 2 3
e 1 5
e 2 5
e 4 5
e 2 6
e 5 6
e 2 7
e 5 8
e 7 8
e 4 9
e 3 10
e 4 10
e 8 10
e 2 11
e 3 11
e 5 11
e 1 12
e 4 12
e 6 12
e 4 13
e 12 13
e 6 14
e 13 14
e 10 15
e 12 15
e 7 16
e 12 16
e 3 17
e 5 18
e 7 18
e 12 18
e 13 18
e 14 18
e 2 19
e 5 19
e 1 20
e 4 20
e 6 20
e 19 20
e 8 21
e 11 21
e 14 22
e 2 23
e 9 23
e 15 23
e 1 24
e 6 24
e 17 24
e 20 24
e 3 25
e 15 25
e 16 25
e 19 25
e 21 25
e 1 26
e 3 26
e 7 26
e 8 26
e 14 26
e 16 26
e 22 26
e 25 26
e 16 27
e 18 27
e 19 27
e 20 27
e 23 27
e 25 27
e 12 28
e 14 28
e 15 28
e 18 28
e 20 28
e 23 28
e 26 28
e 27 28
e 3 29
e 9 29
e 16 29
e 17 29
e 21 29
e 22 29
e 28 29
e 1 30
e 5 30
e 10 30
e 11 30
e 14 30
e 18 30
e 23 30
e 25 30
e 1 31
e 2 31
e 5 31
e 8 31
e 15 31
e 21 31
e 24 31
e 26 31
e 28 31
e 29 31
e 5 32
e 6 32
e 9 32
e 10 32
e 11 32
e 19 32
e 21 32
e 22 32
e 23 32
e 5 33
e 7 33
e 12 33
e 13 33
e 15 33
e 18 33
e 20 33
e 21 33
e 22 33
e 26 33
e 30 33
e 11 34
e 22 34
e 23 34
e 28 34
e 29 34
e 32 34
e 2 35
e 4 35
e 15 35
e 16 35
e 32 35
e 34 35
e 1 36
e 11 36
e 21 36
e 22 36
e 31 36
e 33 36
e 35 36
e 1 37
e 2 37
e 4 37
e 16 37
e 18 37
e 24 37
e 26 37
e 32 37
e 36 37
e 4 38
e 5 38
e 8 38
e 11 38
e 13 38
e 19 38
e 33 38
e 35 38
e 6 39
e 11 39
e 23 39
e 24 39
e 25 39
e 32 39
e 33 39
e 5 40
e 7 40
e 11 40
e 21 40
e 29 40
e 36 40
e 39 40
e 6 41
e 13 41
e 18 41
e 25 41
e 27 41
e 28 41
e 3 42
e 5 42
e 8 42
e 9 42
e 17 42
e 18 42
e 27 42
e 3 43
e 14 43
e 21 43
e 29 43
e 31 43
e 32 43
e 33 43
e 36 43
e 39 43
e 40 43
e 8 44
e 9 44
e 16 44
e 23 44
e 25 44
e 29 44
e 35 44
e 37 44
e 38 44
e 39 44
e 4 45
e 6 45
e 17 45
e 18 45
e 23 45
e 25 45
e 27 45
e 34 45
e 39 45
e 3 46
e 6 46
e 13 46
e 29 46
e 40 46
e 41 46
e 45 46
e 18 47
e 20 47
e 24 47
e 26 47
e 37 47
e 39 47
e 15 48
e 16 48
e 21 48
e 35 48
e 37 48
e 38 48
e 43 48
e 45 48
e 8 49
e 15 49
e 16 49
e 20 49
e 21 49
e 31 49
e 34 49
e 42 49
e 46 49
e 4 50
e 7 50
e 9 50
e 12 50
e 13 50
e 16 50
e 20 50
e 48 50
e 2 51
e 5 51
e 15 51
e 21 51
e 24 51
e 31 51
e 33 51
e 37 51
e 4 52
e 5 52
e 7 52
e 16 52
e 20 52
e 22 52
e 23 52
e 27 52
e 34 52
e 4 53
e 9 53
e 15 53
e 29 53
e 32 53
e 36 53
e 39 53
e 42 53
e 43 53
e 47 53
e 48 53
e 10 54
e 17 54
e 19 54
e 20 54
e 28 54
e 31 54
e 34 54
e 39 54
e 41 54
e 48 54
e 49 54
e 4 55
e 6 55
e 10 55
e 13 55
e 15 55
e 23 55
e 27 55
e 30 55
e 31 55
e 42 55
e 43 55
e 50 55
e 6 56
e 16 56
e 19 56
e 20 56
e 24 56
e 28 56
e 30 56
e 31 56
e 32 56
e 34 56
e 40 56
e 46 56
e 49 56
e 50 56
e 52 56
e 55 56
e 14 57
e 18 57
e 20 57
e 25 57
e 27 57
e 31 57
e 39 57
e 42 57
e 47 57
e 52 57
e 22 58
e 27 58
e 31 58
e 35 58
e 43 58
e 44 58
e 45 58
e 49 58
e 52 58
e 53 58
e 56 58
e 19 59
e 22 59
e 24 59
e 28 59
e 33 59
e 34 59
e 43 59
e 58 59
e 11 60
e 17 60
e 22 60
e 26 60
e 31 60
e 33 60
e 34 60
e 40 60
e 42 60
e 45 60
e 48 60
e 2 61
e 13 61
e 17 61
e 22 61
e 37 61
e 41 61
e 42 61
e 44 61
e 53 61
e 55 61
e 8 62
e 13 62
e 18 62
e 19 62
e 33 62
e 35 62
e 41 62
e 43 62
e 50 62
e 57 62
e 3 63
e 23 63
e 31 63
e 36 63
e 42 63
e 43 63
e 47 63
e 56 63
e 4 64
e 5 64
e 18 64
e 19 64
e 26 64
e 30 64
e 38 64
e 43 64
e 47 64
e 50 64
e 51 64
e 57 64
e 59 64
e 2 65
e 3 65
e 11 65
e 14 65
e 16 65
e 18 65
e 28 65
e 33 65
e 38 65
e 40 65
e 45 65
e 62 65
e 1 66
e 2 66
e 5 66
e 8 66
e 12 66
e 13 66
e 16 66
e 25 66
e 34 66
e 36 66
e 41 66
e 45 66
e 48 66
e 49 66
e 60 66
e 11 67
e 15 67
e 16 67
e 18 67
e 21 67
e 26 67
e 27 67
e 28 67
e 32 67
e 33 67
e 40 67
e 41 67
e 46 67
e 48 67
e 57 67
e 61 67
e 64 67
e 3 68
e 6 68
e 9 68
e 18 68
e 25 68
e 29 68
e 35 68
e 39 68
e 43 68
e 46 68
e 65 68
e 66 68
e 67 68
e 2 69
e 6 69
e 14 69
e 17 69
e 21 69
e 24 69
e 30 69
e 54 69
e 58 69
e 59 69
e 64 69
e 2 70
e 5 70
e 6 70
e 7 70
e 11 70
e 13 70
e 17 70
e 21 70
e 30 70
e 37 70
e 38 70
e 41 70
e 46 70
e 48 70
e 2 71
e 3 71
e 8 71
e 17 71
e 20 71
e 23 71
e 27 71
e 29 71
e 31 71
e 37 71
e 47 71
e 54 71
e 56 71
e 60 71
e 61 71
e 23 72
e 27 72
e 29 72
e 31 72
e 34 72
e 38 72
e 45 72
e 47 72
e 53 72
e 58 72
e 64 72
e 66 72
e 1 73
e 7 73
e 8 73
e 12 73
e 15 73
e 18 73
e 26 73
e 34 73
e 35 73
e 48 73
e 62 73
e 66 73
e 67 73
e 8 74
e 13 74
e 17 74
e 23 74
e 29 74
e 39 74
e 40 74
e 49 74
e 53 74
e 55 74
e 57 74
e 64 74
e 73 74
e 1 75
e 9 75
e 10 75
e 19 75
e 20 75
e 34 75
e 35 75
e 37 75
e 43 75
e 51 75
e 60 75
e 68 75
e 1 76
e 2 76
e 6 76
e 13 76
e 19 76
e 21 76
e 34 76
e 43 76
e 49 76
e 52 76
e 53 76
e 54 76
e 58 76
e 68 76
e 69 76
e 8 77
e 11 77
e 12 77
e 14 77
e 21 77
e 22 77
e 24 77
e 40 77
e 42 77
e 56 77
e 68 77
e 70 77
e 73 77
e 74 77
e 75 77
e 76 77
e 2 78
e 7 78
e 10 78
e 14 78
e 19 78
e 21 78
e 24 78
e 27 78
e 29 78
e 35 78
e 42 78
e 43 78
e 45 78
e 46 78
e 48 78
e 56 78
e 58 78
e 67 78
e 68 78
e 1 79
e 8 79
e 9 79
e 11 79
e 16 79
e 22 79
e 23 79
e 26 79
e 27 79
e 38 79
e 39 79
e 44 79
e 48 79
e 50 79
e 52 79
e 56 79
e 58 79
e 61 79
e 67 79
e 68 79
e 71 79
e 75 79
e 1 80
e 10 80
e 12 80
e 14 80
e 20 80
e 29 80
e 30 80
e 38 80
e 46 80
e 49 80
e 50 80
e 52 80
e 58 80
e 64 80
e 72 80
e 1 81
e 5 81
e 9 81
e 12 81
e 14 81
e 28 81
e 29 81
e 34 81
e 36 81
e 40 81
e 44 81
e 47 81
e 48 81
e 51 81
e 57 81
e 66 81
e 71 81
e 78 81
e 15 82
e 16 82
e 21 82
e 23 82
e 25 82
e 26 82
e 32 82
e 35 82
e 43 82
e 48 82
e 55 82
e 60 82
e 66 82
e 67 82
e 71 82
e 78 82
e 3 83
e 4 83
e 9 83
e 11 83
e 13 83
e 14 83
e 17 83
e 26 83
e 27 83
e 29 83
e 36 83
e 39 83
e 54 83
e 55 83
e 56 83
e 61 83
e 77 83
e 4 84
e 16 84
e 23 84
e 27 84
e 29 84
e 32 84
e 33 84
e 34 84
e 43 84
e 55 84
e 58 84
e 66 84
e 71 84
e 75 84
e 1 85
e 6 85
e 11 85
e 17 85
e 36 85
e 38 85
e 49 85
e 56 85
e 70 85
e 79 85
e 84 85
e 3 86
e 24 86
e 30 86
e 33 86
e 37 86
e 47 86
e 55 86
e 68 86
e 73 86
e 76 86
e 79 86
e 2 87
e 11 87
e 12 87
e 26 87
e 31 87
e 33 87
e 37 87
e 41 87
e 46 87
e 53 87
e 61 87
e 64 87
e 72 87
e 73 87
e 74 87
e 77 87
e 81 87
e 86 87
e 3 88
e 5 88
e 7 88
e 20 88
e 27 88
e 32 88
e 34 88
e 35 88
e 41 88
e 48 88
e 51 88
e 55 88
e 62 88
e 63 88
e 73 88
e 74 88
e 85 88
e 86 88
e 2 89
e 9 89
e 10 89
e 14 89
e 15 89
e 28 89
e 41 89
e 42 89
e 45 89
e 58 89
e 60 89
e 61 89
e 66 89
e 69 89
e 70 89
e 80 89
e 81 89
e 88 89
e 1 90
e 11 90
e 15 90
e 18 90
e 22 90
e 27 90
e 29 90
e 56 90
e 62 90
e 64 90
e 72 90
e 77 90
e 89 90
e 13 91
e 19 91
e 32 91
e 40 91
e 41 91
e 53 91
e 65 91
e 71 91
e 6 92
e 9 92
e 12 92
e 18 92
e 30 92
e 38 92
e 41 92
e 46 92
e 48 92
e 50 92
e 53 92
e 59 92
e 69 92
e 72 92
e 73 92
e 79 92
e 84 92
e 1 93
e 3 93
e 9 93
e 11 93
e 12 93
e 18 93
e 20 93
e 24 93
e 32 93
e 34 93
e 36 93
e 41 93
e 43 93
e 68 93
e 83 93
e 89 93
e 92 93
e 5 94
e 6 94
e 11 94
e 25 94
e 30 94
e 33 94
e 36 94
e 38 94
e 45 94
e 47 94
e 53 94
e 58 94
e 61 94
e 65 94
e 77 94
e 79 94
e 82 94
e 87 94
e 90 94
e 7 95
e 15 95
e 17 95
e 21 95
e 24 95
e 28 95
e 30 95
e 32 95
e 39 95
e 40 95
e 44 95
e 47 95
e 58 95
e 64 95
e 69 95
e 78 95
e 85 95
e 92 95
e 3 96
e 21 96
e 26 96
e 29 96
e 49 96
e 50 96
e 51 96
e 57 96
e 61 96
e 63 96
e 64 96
e 66 96
e 72 96
e 74 96
e 75 96
e 76 96
e 80 96
e 83 96
e 84 96
e 85 96
e 94 96
e 12 97
e 14 97
e 25 97
e 33 97
e 40 97
e 41 97
e 43 97
e 52 97
e 61 97
e 63 97
e 68 97
e 71 97
e 75 97
e 79 97
e 80 97
e 90 97
e 91 97
e 92 97
e 93 97
e 9 98
e 36 98
e 43 98
e 55 98
e 76 98
e 79 98
e 82 98
e 9 99
e 13 99
e 15 99
e 17 99
e 18 99
e 19 99
e 21 99
e 26 99
e 27 99
e 28 99
e 30 99
e 34 99
e 37 99
e 39 99
e 42 99
e 44 99
e 46 99
e 48 99
e 65 99
e 71 99
e 72 99
e 76 99
e 78 99
e 80 99
e 84 99
e 87 99
e 94 99
e 17 100
e 21 100
e 22 100
e 25 100
e 26 100
e 29 100
e 44 100
e 45 100
e 50 100
e 53 100
e 61 100
e 62 100
e 64 100
e 74 100
e 76 100
e 82 100
e 99 100
